Read MPS format model from file dat/rmp/DER_96_32768_30.mps
Reading time = 4.61 seconds
: 32864 rows, 155936 columns, 13457383 nonzeros
Gurobi Optimizer version 9.0.0 build v9.0.0rc2 (linux64)
Optimize a model with 32864 rows, 155936 columns and 13457383 nonzeros
Model fingerprint: 0x779a828b
Coefficient statistics:
  Matrix range     [1e-13, 1e+01]
  Objective range  [8e-01, 1e+03]
  Bounds range     [2e+05, 2e+05]
  RHS range        [1e+00, 1e+00]
Ordering time: 0.10s

Barrier statistics:
 AA' NZ     : 2.967e+06
 Factor NZ  : 3.321e+06 (roughly 100 MBytes of memory)
 Factor Ops : 3.470e+08 (less than 1 second per iteration)
 Threads    : 1

                  Objective                Residual
Iter       Primal          Dual         Primal    Dual     Compl     Time
   0   9.48912529e+09 -6.84246096e+08  2.94e+08 1.75e-02  1.28e+06     3s
   1   1.18747671e+08 -8.22875430e+07  3.22e+06 2.73e-12  1.47e+04     4s
   2   1.10553115e+07 -2.52140862e+07  2.94e+05 3.64e-12  1.47e+03     6s
   3   3.29635854e+05 -1.50151544e+07  2.38e+03 3.64e-12  1.07e+02     7s
   4   2.31185644e+05 -4.61868728e+06  1.11e+00 3.64e-12  3.11e+01     9s
   5   2.30175775e+05  1.49898618e+05  1.45e-09 3.64e-12  5.14e-01    10s
   6   2.28788494e+05  2.10588998e+05  1.79e-09 1.82e-12  1.17e-01    11s
   7   2.27043757e+05  2.18659306e+05  9.68e-10 1.82e-12  5.37e-02    12s
   8   2.25820742e+05  2.22711928e+05  1.06e-09 1.82e-12  1.99e-02    13s
   9   2.24948031e+05  2.23903660e+05  1.72e-09 1.82e-12  6.69e-03    15s
  10   2.24549913e+05  2.24241165e+05  4.92e-09 3.64e-12  1.98e-03    16s
  11   2.24483841e+05  2.24294561e+05  7.26e-09 1.82e-12  1.21e-03    18s
  12   2.24426502e+05  2.24344493e+05  8.74e-09 1.82e-12  5.26e-04    19s
  13   2.24405165e+05  2.24386033e+05  1.48e-08 3.64e-12  1.23e-04    21s
  14   2.24402328e+05  2.24392416e+05  1.10e-08 3.64e-12  6.35e-05    22s
  15   2.24399793e+05  2.24393636e+05  2.76e-08 1.82e-12  3.95e-05    23s
  16   2.24398764e+05  2.24394439e+05  2.41e-08 1.82e-12  2.77e-05    24s
  17   2.24397806e+05  2.24394877e+05  2.63e-08 2.20e-12  1.88e-05    25s
  18   2.24397444e+05  2.24395131e+05  2.75e-08 2.38e-12  1.48e-05    26s
  19   2.24397025e+05  2.24395307e+05  3.04e-08 3.54e-12  1.10e-05    27s
  20   2.24396786e+05  2.24395500e+05  3.79e-08 4.73e-12  8.24e-06    29s
  21   2.24396577e+05  2.24395581e+05  6.10e-08 4.17e-12  6.38e-06    30s
  22   2.24396415e+05  2.24395604e+05  9.39e-08 3.91e-12  5.20e-06    31s
  23   2.24396162e+05  2.24395642e+05  1.52e-07 3.16e-12  3.33e-06    33s
  24   2.24396058e+05  2.24395681e+05  2.49e-07 3.85e-12  2.41e-06    34s
  25   2.24395989e+05  2.24395700e+05  3.00e-07 3.57e-12  1.85e-06    35s
  26   2.24395918e+05  2.24395737e+05  3.61e-07 2.05e-12  1.16e-06    37s
  27   2.24395840e+05  2.24395743e+05  1.87e-06 1.82e-12  6.22e-07    38s
  28   2.24395771e+05  2.24395748e+05  8.55e-06 3.64e-12  1.47e-07    39s
  29   2.24395758e+05  2.24395749e+05  7.24e-06 3.64e-12  5.89e-08    41s
  30   2.24395750e+05  2.24395749e+05  9.65e-06 3.64e-12  2.30e-09    42s
  31   2.24395749e+05  2.24395749e+05  9.51e-06 3.64e-12  2.29e-11    43s
  32   2.24395749e+05  2.24395749e+05  2.72e-06 3.64e-12  4.91e-13    44s
  33   2.24395749e+05  2.24395749e+05  4.78e-06 3.64e-12  1.34e-14    46s
  34   2.24395749e+05  2.24395749e+05  4.52e-07 3.64e-12  1.76e-17    47s

Barrier solved model in 34 iterations and 46.60 seconds
Optimal objective 2.24395749e+05

Solve time: 46.620024995
Barrier iterations: 34
